n_res = 5;
rcap = [13, 8, 99, 99, 94];
rtype = [1, 1, 2, 2, 2];
n_tasks = 16;
modes = [ {1, 2, 3}, {4, 5, 6}, {7, 8, 9}, {10, 11, 12}, {13, 14, 15}, {16, 17, 18}, {19, 20, 21}, {22, 23, 24}, {25, 26, 27}, {28, 29, 30}, {31, 32, 33}, {34, 35, 36}, {37, 38, 39}, {40, 41, 42}, {43, 44, 45}, {46, 47, 48} ];
succ = [ {5, 6, 9}, {4, 6, 11}, {7, 10}, {10, 13}, {7, 8, 15}, {12, 16}, {12}, {11, 13}, {11, 13, 15}, {15, 16}, {12}, {14}, {14, 16}, {}, {}, {} ];
n_opt = 48;
dur = [5, 6, 7, 2, 7, 8, 5, 5, 8, 1, 3, 9, 2, 8, 9, 1, 3, 6, 5, 5, 9, 6, 6, 8, 7, 8, 8, 2, 2, 7, 3, 3, 10, 1, 1, 6, 1, 6, 8, 3, 8, 10, 1, 1, 4, 3, 9, 9];
rreq = [|  4,  4,  4,  0,  7,  3,  0,  7,  0,  8,  0,  1,  7,  5,  0,  0,  0,  3,  3,  0,  0,  0,  6,  3, 10,  0,  9,  0,  6,  3,  5,  0,  4,  8,  9,  7,  8,  0,  8,  2,  0,  0,  6,  7,  4,  3,  0,  0
        |  0,  0,  0,  8,  0,  0,  5,  0,  5,  0,  5,  0,  0,  0,  9,  5,  3,  0,  0,  6,  6,  7,  0,  0,  0,  9,  0,  8,  0,  0,  0,  8,  0,  0,  0,  0,  0,  6,  0,  0,  4,  2,  0,  0,  0,  0,  5,  5
        |  8,  7,  6,  6,  6,  3,  9,  9,  8,  6,  5,  4,  8,  8,  7,  7,  6,  4,  7,  6,  5,  5,  5,  5,  6,  2,  3,  8,  8,  8,  2,  2,  2,  9,  9,  9,  5,  5,  4,  3,  2,  1,  7,  9,  5,  7,  6,  6
        |  8,  8,  6,  8,  7,  7,  4,  4,  4,  5,  4,  3,  8,  5,  2,  8,  7,  7,  1,  1,  1,  6,  8,  6,  7,  4,  5,  3,  3,  1,  5,  7,  2,  9,  9,  6,  9,  9,  9,  9,  8,  7,  6,  5,  5,  7,  7,  6
        |  6,  6,  4,  3,  2,  2, 10, 10,  9,  9,  8,  6,  4,  3,  3,  5,  5,  3,  3,  4,  2,  8,  8,  8,  7,  6,  5,  8,  8,  5,  7,  6,  3,  7,  6,  2,  9,  6,  3,  7,  5,  4,  3,  3,  2,  7,  2,  5 |];
